RST06
Position Depot: Random
Horizon for Depot: Small
Position of customers: Random
Distribution of the demand: Large
Width of time windows: Tight
Distribution of the service: Small

VEHICLE 
NUMBER 	 CAPACITY 
 7 	 	 392 
 
CUSTOMER
CUST NO. 	 XCOORD.  	 YCOORD. 	 DEMAND 	 READY TIME 	 DUE DATE 	 SERVICE TIME 
 0 	 	 665 	 	 716 	 	 0 	 	 0 	 	 1633 	 	 0 
  1 	 	 686 	 	 875 	 	 77 	 	 1489 	 	 1594 	 	 84 
  2 	 	 894 	 	 658 	 	 14 	 	 1473 	 	 1633 	 	 63 
  3 	 	 268 	 	 774 	 	 69 	 	 1040 	 	 1150 	 	 58 
  4 	 	 680 	 	 910 	 	 73 	 	 1321 	 	 1388 	 	 100 
  5 	 	 345 	 	 53 	 	 95 	 	 1469 	 	 1633 	 	 66 
  6 	 	 881 	 	 653 	 	 91 	 	 183 	 	 247 	 	 88 
  7 	 	 251 	 	 37 	 	 96 	 	 801 	 	 874 	 	 60 
  8 	 	 685 	 	 184 	 	 25 	 	 524 	 	 585 	 	 82 
  9 	 	 626 	 	 873 	 	 79 	 	 1378 	 	 1560 	 	 50 
  10 	 	 695 	 	 418 	 	 64 	 	 1564 	 	 1629 	 	 84 
  11 	 	 900 	 	 245 	 	 67 	 	 502 	 	 579 	 	 70 
  12 	 	 436 	 	 180 	 	 5 	 	 981 	 	 1129 	 	 69 
  13 	 	 362 	 	 31 	 	 59 	 	 675 	 	 823 	 	 78 
  14 	 	 510 	 	 484 	 	 46 	 	 1436 	 	 1527 	 	 77 
  15 	 	 62 	 	 692 	 	 90 	 	 1008 	 	 1142 	 	 66 
  16 	 	 582 	 	 49 	 	 4 	 	 741 	 	 830 	 	 80 
  17 	 	 201 	 	 399 	 	 70 	 	 1163 	 	 1332 	 	 61 
  18 	 	 231 	 	 526 	 	 8 	 	 1213 	 	 1305 	 	 76 
  19 	 	 464 	 	 767 	 	 75 	 	 1294 	 	 1344 	 	 62 
  20 	 	 47 	 	 580 	 	 80 	 	 778 	 	 846 	 	 95 
  21 	 	 538 	 	 411 	 	 1 	 	 256 	 	 363 	 	 94 
  22 	 	 871 	 	 840 	 	 52 	 	 642 	 	 745 	 	 56 
  23 	 	 670 	 	 398 	 	 41 	 	 280 	 	 349 	 	 62 
  24 	 	 358 	 	 1000 	 	 46 	 	 1398 	 	 1458 	 	 91 
  25 	 	 437 	 	 606 	 	 40 	 	 828 	 	 953 	 	 91 
  26 	 	 517 	 	 164 	 	 96 	 	 447 	 	 628 	 	 86 
  27 	 	 137 	 	 673 	 	 89 	 	 387 	 	 582 	 	 50 
  28 	 	 446 	 	 220 	 	 29 	 	 862 	 	 936 	 	 50 
  29 	 	 446 	 	 163 	 	 71 	 	 498 	 	 680 	 	 97 
  30 	 	 473 	 	 970 	 	 95 	 	 1315 	 	 1412 	 	 89 
  31 	 	 586 	 	 400 	 	 25 	 	 1388 	 	 1512 	 	 70 
  32 	 	 117 	 	 970 	 	 83 	 	 471 	 	 664 	 	 57 
  33 	 	 495 	 	 52 	 	 72 	 	 715 	 	 856 	 	 85 
  34 	 	 916 	 	 56 	 	 14 	 	 891 	 	 1009 	 	 53 
  35 	 	 592 	 	 335 	 	 93 	 	 855 	 	 937 	 	 69 
  36 	 	 469 	 	 48 	 	 17 	 	 579 	 	 765 	 	 57 
  37 	 	 806 	 	 607 	 	 16 	 	 1289 	 	 1359 	 	 77 
  38 	 	 440 	 	 520 	 	 11 	 	 795 	 	 936 	 	 85 
  39 	 	 969 	 	 600 	 	 22 	 	 1336 	 	 1533 	 	 81 
  40 	 	 511 	 	 734 	 	 84 	 	 1353 	 	 1532 	 	 98 
  41 	 	 424 	 	 949 	 	 38 	 	 1455 	 	 1623 	 	 79 
  42 	 	 247 	 	 213 	 	 76 	 	 1446 	 	 1633 	 	 62 
  43 	 	 135 	 	 63 	 	 36 	 	 1477 	 	 1530 	 	 98 
  44 	 	 452 	 	 459 	 	 86 	 	 307 	 	 410 	 	 68 
  45 	 	 904 	 	 558 	 	 39 	 	 261 	 	 332 	 	 61 
  46 	 	 543 	 	 92 	 	 85 	 	 606 	 	 699 	 	 76 
  47 	 	 172 	 	 865 	 	 28 	 	 1476 	 	 1633 	 	 66 
  48 	 	 347 	 	 792 	 	 85 	 	 218 	 	 410 	 	 64 
  49 	 	 959 	 	 424 	 	 43 	 	 1498 	 	 1550 	 	 99 
  50 	 	 771 	 	 767 	 	 93 	 	 425 	 	 518 	 	 90 
 